325 0
650 0
975 0
1300 0
1625 0
1950 0
2275 0
2600 0
2925 0
3250 0
3575 0
3900 0
4225 0
4550 0
4875 0
5200 0
5525 0
5850 0
6175 0
6500 0
6825 0
7150 0
7475 0
7800 0
8125 0
8450 0
8775 0
9100 0
9425 0
